--- Job Banco.gms Start 01/31/21 17:36:12 33.2.0 r4f23b21 DEX-DEG x86 64bit/Mac OS X
--- Applying:
    /Library/Frameworks/GAMS.framework/Versions/33/Resources/gmsprmun.txt
--- GAMS Parameters defined
    Input /Users/jorgevarela/Downloads/Banco.gms
    PageSize 0
    ScrDir /Users/jorgevarela/Downloads/225a/
    SysDir /Library/Frameworks/GAMS.framework/Versions/33/Resources/
    LogOption 3
    ErrMsg 1
    ErrorLog 99
    IDE 1
    LstTitleLeftAligned 1
Licensee: GAMS Demo license for Jorge Silva              G210125|0002CO-GEN
          Student, Portugal                                        DL030175
          /Users/jorgevarela/Library/Application Support/GAMS/gamslice.txt
          jnashvs@gmail.com, Jorge Silva                                   
          Demo license for demonstration and instructional purposes only
GAMS 33.2.0   Copyright (C) 1987-2020 GAMS Development. All rights reserved
--- Starting compilation
--- Banco.gms(15) 2 Mb
--- Starting execution: elapsed 0:00:00.021
--- Generating MIP model agencia
--- Banco.gms(15) 3 Mb
---   6 rows  11 columns  31 non-zeroes
---   10 discrete-columns
--- Executing CPLEX (Solvelink=2): elapsed 0:00:00.063
IBM ILOG CPLEX   33.2.0 r4f23b21 Released Dec 01, 2020 DEG x86 64bit/Mac OS X 
--- *** This solver runs with a demo license. No commercial use.
--- GMO memory 0.50 Mb (peak 0.50 Mb)
--- Dictionary memory 0.00 Mb
--- Cplex 12.10.0.0 link memory 0.00 Mb (peak 0.00 Mb)
--- Starting Cplex
Version identifier: 12.10.0.0 | 2019-11-26 | 843d4de
CPXPARAM_Advance                                 0
CPXPARAM_Simplex_Display                         2
CPXPARAM_Threads                                 1
CPXPARAM_MIP_Display                             4
CPXPARAM_MIP_Tolerances_AbsMIPGap                0
Found incumbent of value 50.000000 after 0.01 sec. (0.00 ticks)
Tried aggregator 3 times.
MIP Presolve eliminated 1 rows and 7 columns.
Aggregator did 4 substitutions.
All rows and columns eliminated.
Presolve time = 0.01 sec. (0.02 ticks)
Root node processing (before b&c):
  Real time             =    0.02 sec. (0.02 ticks)
Sequential b&c:
  Real time             =    0.00 sec. (0.00 ticks)
                          ------------
Total (root+branch&cut) =    0.02 sec. (0.02 ticks)
--- MIP status (101): integer optimal solution.
--- Cplex Time: 0.02sec (det. 0.02 ticks)
--- Fixing integer variables and solving final LP...
Version identifier: 12.10.0.0 | 2019-11-26 | 843d4de
CPXPARAM_Advance                                 2
CPXPARAM_Simplex_Display                         2
CPXPARAM_Threads                                 1
CPXPARAM_MIP_Display                             4
CPXPARAM_MIP_Tolerances_AbsMIPGap                0
Tried aggregator 1 time.
LP Presolve eliminated 5 rows and 11 columns.
All rows and columns eliminated.
Presolve time = 0.00 sec. (0.00 ticks)
--- Fixed MIP status (1): optimal.
--- Cplex Time: 0.01sec (det. 0.00 ticks)
Proven optimal solution
MIP Solution:           50.000000    (0 iterations, 0 nodes)
Final Solve:            50.000000    (0 iterations)
Best possible:          50.000000
Absolute gap:            0.000000
Relative gap:            0.000000
--- Reading solution for model agencia
*** Status: Normal completion
--- Job Banco.gms Stop 01/31/21 17:36:12 elapsed 0:00:00.247
